/*Un’azienda deve pianificare la produzione per le prossime 5 settimane in modo
da evadere senza stockout i seguenti quantitativi di domanda dt = {30, 60, 40, 70, 50}
Formulare il problema di pianificazione multiperiodo per la minimizzazione
della somma dei costi totali considerando costi unitari di produzione ct =
{8, 8, 10, 10, 20} e costi unitari di stoccaggio per unità di tempo pari a ht =
{1, 1, 2, 2, 2}.
Considerare inoltre che le scorte al periodo iniziale sono 0 e che la capacità
massima del magazzino è 30 unità.*

set Prodotti := x1, x2, x3, x4, x5;

param:    dt    ct    ht :=

x1        30    8     1
x2        60    8     1
x3        40    10    2  
x4        70    10    2
x5        50    20    2;

param capienza_max := 30
